p cnf 11 27
-3 -1 -2 0
3 1 0
3 2 0
-4 -1 -3 0
4 1 0
4 3 0
-5 -2 -3 0
5 2 0
5 3 0
-6 -4 -5 0
6 4 0
6 5 0
-8 -1 -7 0
8 1 0
8 7 0
-9 -2 -7 0
9 2 0
9 7 0
-10 -8 -9 0
10 8 0
10 9 0
-11 -6 -10 0
-11 6 10 0
11 -6 10 0
11 6 -10 0
-7 0
11 0